Instance: E200-16b.dat
Class:  1
199 --- number of customers (no depot)
16 --- number of vehicles
199 --- number of items
Capacity - height - width of vehicles
   200     40     20
Node - x - y - demand  Readytime Duetime
  0.00   35.00  35.00   0.00 0       551.00       
  1.00   41.00  49.00  10.00 183.00  195.00       
  2.00   35.00  17.00   7.00 280.00  298.00       
  3.00   55.00  45.00  13.00 165.00  171.00       
  4.00   55.00  20.00  19.00 374.00  382.00       
  5.00   15.00  30.00  26.00  91.00  104.00       
  6.00   25.00  30.00   3.00 195.00  207.00       
  7.00   20.00  50.00   5.00 369.00  376.00       
  8.00   10.00  43.00   9.00 230.00  239.00       
  9.00   55.00  60.00  16.00  22.00   50.00       
 10.00   30.00  60.00  16.00 332.00  340.00       
 11.00   20.00  65.00  12.00 211.00  228.00       
 12.00   50.00  35.00  19.00 249.00  264.00       
 13.00   30.00  25.00  23.00 143.00  159.00       
 14.00   15.00  10.00  20.00 143.00  153.00       
 15.00   30.00   5.00   8.00 435.00  449.00       
 16.00   10.00  20.00  19.00  85.00  104.00       
 17.00    5.00  30.00   2.00 291.00  309.00       
 18.00   20.00  40.00  12.00 216.00  229.00       
 19.00   15.00  60.00  17.00 450.00  461.00       
 20.00   45.00  65.00   9.00  39.00   54.00       
 21.00   45.00  20.00  11.00 237.00  246.00       
 22.00   45.00  10.00  18.00 266.00  278.00       
 23.00   55.00   5.00  29.00 177.00  194.00       
 24.00   65.00  35.00   3.00  34.00   50.00       
 25.00   65.00  20.00   6.00  53.00   63.00       
 26.00   45.00  30.00  17.00 227.00  237.00       
 27.00   35.00  40.00  16.00 211.00  227.00       
 28.00   41.00  37.00  16.00 322.00  333.00       
 29.00   64.00  42.00   9.00 273.00  282.00       
 30.00   40.00  60.00  21.00 352.00  365.00       
 31.00   31.00  52.00  27.00 230.00  247.00       
 32.00   35.00  69.00  23.00 331.00  347.00       
 33.00   53.00  52.00  11.00 267.00  273.00       
 34.00   65.00  55.00  14.00 348.00  355.00       
 35.00   63.00  65.00   8.00 365.00  381.00       
 36.00    2.00  60.00   5.00  90.00  108.00       
 37.00   20.00  20.00   8.00 439.00  452.00       
 38.00    5.00   5.00  16.00 172.00  177.00       
 39.00   60.00  12.00  31.00 385.00  398.00       
 40.00   40.00  25.00   9.00 236.00  242.00       
 41.00   42.00   7.00   5.00  68.00   73.00       
 42.00   24.00  12.00   5.00 365.00  372.00       
 43.00   23.00   3.00   7.00 400.00  412.00       
 44.00   11.00  14.00  18.00  72.00   83.00       
 45.00    6.00  38.00  16.00 150.00  164.00       
 46.00    2.00  48.00   1.00 452.00  458.00       
 47.00    8.00  56.00  27.00 359.00  365.00       
 48.00   13.00  52.00  36.00 220.00  229.00       
 49.00    6.00  68.00  30.00 236.00  244.00       
 50.00   47.00  47.00  13.00 408.00  417.00       
 51.00   49.00  58.00  10.00 104.00  114.00       
 52.00   27.00  43.00   9.00 462.00  471.00       
 53.00   37.00  31.00  14.00 160.00  176.00       
 54.00   57.00  29.00  18.00 274.00  290.00       
 55.00   63.00  23.00   2.00  96.00  101.00       
 56.00   53.00  12.00   6.00 359.00  365.00       
 57.00   32.00  12.00   7.00 343.00  351.00       
 58.00   36.00  26.00  18.00 125.00  134.00       
 59.00   21.00  24.00  28.00 344.00  359.00       
 60.00   17.00  34.00   3.00 164.00  171.00       
 61.00   12.00  24.00  13.00 175.00  186.00       
 62.00   24.00  58.00  19.00 343.00  355.00       
 63.00   27.00  69.00  10.00 101.00  107.00       
 64.00   15.00  77.00   9.00 329.00  343.00       
 65.00   62.00  77.00  20.00 397.00  414.00       
 66.00   49.00  73.00  25.00 124.00  132.00       
 67.00   67.00   5.00  25.00 203.00  221.00       
 68.00   56.00  39.00  36.00  24.00   50.00       
 69.00   37.00  47.00   6.00  42.00   50.00       
 70.00   37.00  56.00   5.00 290.00  302.00       
 71.00   57.00  68.00  15.00 370.00  383.00       
 72.00   47.00  16.00  25.00  18.00   50.00       
 73.00   44.00  17.00   9.00 295.00  314.00       
 74.00   46.00  13.00   8.00 247.00  252.00       
 75.00   49.00  11.00  18.00  14.00   50.00       
 76.00   49.00  42.00  13.00 191.00  208.00       
 77.00   53.00  43.00  14.00  81.00   88.00       
 78.00   61.00  52.00   3.00 173.00  185.00       
 79.00   57.00  48.00  23.00 276.00  285.00       
 80.00   56.00  37.00   6.00 452.00  465.00       
 81.00   55.00  54.00  26.00  90.00  105.00       
 82.00   15.00  47.00  16.00  86.00  106.00       
 83.00   14.00  37.00  11.00 254.00  273.00       
 84.00   11.00  31.00   7.00 239.00  259.00       
 85.00   16.00  22.00  41.00  33.00   50.00       
 86.00    4.00  18.00  35.00  89.00  102.00       
 87.00   28.00  18.00  26.00 183.00  201.00       
 88.00   26.00  52.00   9.00 299.00  308.00       
 89.00   26.00  35.00  15.00 313.00  323.00       
 90.00   31.00  67.00   3.00  55.00   71.00       
 91.00   15.00  19.00   1.00 161.00  181.00       
 92.00   22.00  22.00   2.00 107.00  127.00       
 93.00   18.00  24.00  22.00 314.00  321.00       
 94.00   26.00  27.00  27.00 272.00  279.00       
 95.00   25.00  24.00  20.00  33.00   50.00       
 96.00   22.00  27.00  11.00 462.00  467.00       
 97.00   25.00  21.00  12.00  27.00   50.00       
 98.00   19.00  21.00  10.00 457.00  467.00       
 99.00   20.00  26.00   9.00 210.00  220.00       
100.00   18.00  18.00  17.00 224.00  229.00       
101.00   37.00  52.00   7.00 405.00  424.00       
102.00   49.00  49.00  30.00 235.00  242.00       
103.00   52.00  64.00  16.00  10.00   50.00       
104.00   20.00  26.00   9.00  78.00   95.00       
105.00   40.00  30.00  21.00 309.00  318.00       
106.00   21.00  47.00  15.00 272.00  279.00       
107.00   17.00  63.00  19.00 172.00  181.00       
108.00   31.00  62.00  23.00 162.00  179.00       
109.00   52.00  33.00  11.00 224.00  240.00       
110.00   51.00  21.00   5.00 253.00  270.00       
111.00   42.00  41.00  19.00  32.00   50.00       
112.00   31.00  32.00  29.00 304.00  310.00       
113.00    5.00  25.00  23.00  28.00   50.00       
114.00   12.00  42.00  21.00 399.00  417.00       
115.00   36.00  16.00  10.00 382.00  388.00       
116.00   52.00  41.00  15.00 217.00  235.00       
117.00   27.00  23.00   3.00 306.00  318.00       
118.00   17.00  33.00  41.00 106.00  114.00       
119.00   13.00  13.00   9.00 449.00  469.00       
120.00   57.00  58.00  28.00 184.00  192.00       
121.00   62.00  42.00   8.00 258.00  276.00       
122.00   42.00  57.00   8.00 170.00  177.00       
123.00   16.00  57.00  16.00 185.00  194.00       
124.00    8.00  52.00  10.00   6.00   50.00       
125.00    7.00  38.00  28.00 351.00  371.00       
126.00   27.00  68.00   7.00 428.00  448.00       
127.00   30.00  48.00  15.00 169.00  177.00       
128.00   43.00  67.00  14.00  31.00   50.00       
129.00   58.00  48.00   6.00   4.00   50.00       
130.00   58.00  27.00  19.00  23.00   50.00       
131.00   37.00  69.00  11.00 107.00  115.00       
132.00   38.00  46.00  12.00 427.00  442.00       
133.00   46.00  10.00  23.00  36.00   50.00       
134.00   61.00  33.00  26.00 213.00  227.00       
135.00   62.00  63.00  17.00  17.00   50.00       
136.00   63.00  69.00   6.00 116.00  132.00       
137.00   32.00  22.00   9.00 195.00  208.00       
138.00   45.00  35.00  15.00 404.00  410.00       
139.00   59.00  15.00  14.00 304.00  315.00       
140.00    5.00   6.00   7.00  89.00  102.00       
141.00   10.00  17.00  27.00 117.00  137.00       
142.00   21.00  10.00  13.00 389.00  403.00       
143.00    5.00  64.00  11.00  22.00   50.00       
144.00   30.00  15.00  16.00 264.00  281.00       
145.00   39.00  10.00  10.00 318.00  335.00       
146.00   32.00  39.00   5.00 302.00  316.00       
147.00   25.00  32.00  25.00  19.00   50.00       
148.00   25.00  55.00  17.00 417.00  422.00       
149.00   48.00  28.00  18.00 179.00  184.00       
150.00   56.00  37.00  10.00 371.00  384.00       
151.00   22.00  22.00  18.00  77.00   88.00       
152.00   36.00  26.00  26.00 434.00  449.00       
153.00   21.00  45.00  11.00 155.00  164.00       
154.00   45.00  35.00  30.00 232.00  240.00       
155.00   55.00  20.00  21.00  98.00  107.00       
156.00   33.00  34.00  19.00 247.00  257.00       
157.00   50.00  50.00  15.00 120.00  135.00       
158.00   55.00  45.00  16.00 367.00  383.00       
159.00   26.00  59.00  29.00 264.00  282.00       
160.00   40.00  66.00  26.00 330.00  341.00       
161.00   55.00  65.00  37.00  18.00   50.00       
162.00   35.00  51.00  16.00 360.00  376.00       
163.00   62.00  35.00  12.00 188.00  207.00       
164.00   62.00  57.00  31.00  59.00   69.00       
165.00   62.00  24.00   8.00 203.00  213.00       
166.00   21.00  36.00  19.00 130.00  143.00       
167.00   33.00  44.00  20.00 328.00  334.00       
168.00    9.00  56.00  13.00 398.00  406.00       
169.00   62.00  48.00  15.00 215.00  225.00       
170.00   66.00  14.00  22.00 253.00  266.00       
171.00   44.00  13.00  28.00 402.00  415.00       
172.00   26.00  13.00  12.00 188.00  201.00       
173.00   11.00  28.00   6.00 297.00  315.00       
174.00    7.00  43.00  27.00 370.00  387.00       
175.00   17.00  64.00  14.00 329.00  339.00       
176.00   41.00  46.00  18.00  91.00  104.00       
177.00   55.00  34.00  17.00 431.00  445.00       
178.00   35.00  16.00  29.00 225.00  245.00       
179.00   52.00  26.00  13.00 213.00  222.00       
180.00   43.00  26.00  22.00  41.00   50.00       
181.00   31.00  76.00  25.00 309.00  327.00       
182.00   22.00  53.00  28.00 166.00  175.00       
183.00   26.00  29.00  27.00 159.00  170.00       
184.00   50.00  40.00  19.00 250.00  266.00       
185.00   55.00  50.00  10.00  45.00   57.00       
186.00   54.00  10.00  12.00 144.00  162.00       
187.00   60.00  15.00  14.00 187.00  192.00       
188.00   47.00  66.00  24.00 401.00  419.00       
189.00   30.00  60.00  16.00 426.00  435.00       
190.00   30.00  50.00  33.00 158.00  168.00       
191.00   12.00  17.00  15.00 244.00  251.00       
192.00   15.00  14.00  11.00 440.00  448.00       
193.00   16.00  19.00  18.00 240.00  252.00       
194.00   21.00  48.00  17.00 362.00  378.00       
195.00   50.00  30.00  21.00 440.00  459.00       
196.00   51.00  42.00  27.00 421.00  437.00       
197.00   50.00  15.00  19.00  56.00   75.00       
198.00   48.00  21.00  20.00 428.00  447.00       
199.00   12.00  38.00   5.00  31.00   50.00 
Node - number of items - h - w for each item
    0   0
    1   1    1    1
    2   1    1    1
    3   1    1    1
    4   1    1    1
    5   1    1    1
    6   1    1    1
    7   1    1    1
    8   1    1    1
    9   1    1    1
   10   1    1    1
   11   1    1    1
   12   1    1    1
   13   1    1    1
   14   1    1    1
   15   1    1    1
   16   1    1    1
   17   1    1    1
   18   1    1    1
   19   1    1    1
   20   1    1    1
   21   1    1    1
   22   1    1    1
   23   1    1    1
   24   1    1    1
   25   1    1    1
   26   1    1    1
   27   1    1    1
   28   1    1    1
   29   1    1    1
   30   1    1    1
   31   1    1    1
   32   1    1    1
   33   1    1    1
   34   1    1    1
   35   1    1    1
   36   1    1    1
   37   1    1    1
   38   1    1    1
   39   1    1    1
   40   1    1    1
   41   1    1    1
   42   1    1    1
   43   1    1    1
   44   1    1    1
   45   1    1    1
   46   1    1    1
   47   1    1    1
   48   1    1    1
   49   1    1    1
   50   1    1    1
   51   1    1    1
   52   1    1    1
   53   1    1    1
   54   1    1    1
   55   1    1    1
   56   1    1    1
   57   1    1    1
   58   1    1    1
   59   1    1    1
   60   1    1    1
   61   1    1    1
   62   1    1    1
   63   1    1    1
   64   1    1    1
   65   1    1    1
   66   1    1    1
   67   1    1    1
   68   1    1    1
   69   1    1    1
   70   1    1    1
   71   1    1    1
   72   1    1    1
   73   1    1    1
   74   1    1    1
   75   1    1    1
   76   1    1    1
   77   1    1    1
   78   1    1    1
   79   1    1    1
   80   1    1    1
   81   1    1    1
   82   1    1    1
   83   1    1    1
   84   1    1    1
   85   1    1    1
   86   1    1    1
   87   1    1    1
   88   1    1    1
   89   1    1    1
   90   1    1    1
   91   1    1    1
   92   1    1    1
   93   1    1    1
   94   1    1    1
   95   1    1    1
   96   1    1    1
   97   1    1    1
   98   1    1    1
   99   1    1    1
  100   1    1    1
  101   1    1    1
  102   1    1    1
  103   1    1    1
  104   1    1    1
  105   1    1    1
  106   1    1    1
  107   1    1    1
  108   1    1    1
  109   1    1    1
  110   1    1    1
  111   1    1    1
  112   1    1    1
  113   1    1    1
  114   1    1    1
  115   1    1    1
  116   1    1    1
  117   1    1    1
  118   1    1    1
  119   1    1    1
  120   1    1    1
  121   1    1    1
  122   1    1    1
  123   1    1    1
  124   1    1    1
  125   1    1    1
  126   1    1    1
  127   1    1    1
  128   1    1    1
  129   1    1    1
  130   1    1    1
  131   1    1    1
  132   1    1    1
  133   1    1    1
  134   1    1    1
  135   1    1    1
  136   1    1    1
  137   1    1    1
  138   1    1    1
  139   1    1    1
  140   1    1    1
  141   1    1    1
  142   1    1    1
  143   1    1    1
  144   1    1    1
  145   1    1    1
  146   1    1    1
  147   1    1    1
  148   1    1    1
  149   1    1    1
  150   1    1    1
  151   1    1    1
  152   1    1    1
  153   1    1    1
  154   1    1    1
  155   1    1    1
  156   1    1    1
  157   1    1    1
  158   1    1    1
  159   1    1    1
  160   1    1    1
  161   1    1    1
  162   1    1    1
  163   1    1    1
  164   1    1    1
  165   1    1    1
  166   1    1    1
  167   1    1    1
  168   1    1    1
  169   1    1    1
  170   1    1    1
  171   1    1    1
  172   1    1    1
  173   1    1    1
  174   1    1    1
  175   1    1    1
  176   1    1    1
  177   1    1    1
  178   1    1    1
  179   1    1    1
  180   1    1    1
  181   1    1    1
  182   1    1    1
  183   1    1    1
  184   1    1    1
  185   1    1    1
  186   1    1    1
  187   1    1    1
  188   1    1    1
  189   1    1    1
  190   1    1    1
  191   1    1    1
  192   1    1    1
  193   1    1    1
  194   1    1    1
  195   1    1    1
  196   1    1    1
  197   1    1    1
  198   1    1    1
  199   1    1    1
  